Maximize
  NxS_e0 + NxS_e1 + NxS_e2 + NxS_e3 + NxS_e4 + NxS_e6 + NxS_e7 + NxS_e8 + NxS_e9 + NxS_e10
Subject to
  -S_BB_1 + S_e_0 = 0
  -S_BB_1 = 0
  -S_BB_2 + S_e_1 + S_e_2 = 0
  -S_BB_2 + S_e_0 + S_e_9 = 0
  -S_BB_3 + S_e_3 = 0
  -S_BB_3 + S_e_1 = 0
  -S_BB_4 + S_e_4 = 0
  -S_BB_4 + S_e_3 + S_e_7 = 0
  -S_BB_5 + S_e_6 = 0
  -S_BB_5 + S_e_4 = 0
  -S_BB_6 + S_e_7 + S_e_8 = 0
  -S_BB_6 + S_e_6 = 0
  -S_BB_7 + S_e_9 + S_e_10 = 0
  -S_BB_7 + S_e_2 + S_e_8 = 0
  -S_BB_8 = 0
  -S_BB_8 + S_e_10 = 0
  NxS_e0 - N <= 0
  -105 S_e_0 + NxS_e0 <= 0
  -105 S_e_0 + NxS_e0 - N >= -105
  -104 S_e_0 - N >= -105
  NxS_e1 - N <= 0
  -105 S_e_1 + NxS_e1 <= 0
  -105 S_e_1 + NxS_e1 - N >= -105
  -91 S_e_1 - N >= -105
  NxS_e2 - N <= 0
  -105 S_e_2 + NxS_e2 <= 0
  -105 S_e_2 + NxS_e2 - N >= -105
  -104 S_e_2 - N >= -105
  NxS_e3 - N <= 0
  -105 S_e_3 + NxS_e3 <= 0
  -105 S_e_3 + NxS_e3 - N >= -105
  -91 S_e_3 - N >= -105
  NxS_e4 - N <= 0
  -105 S_e_4 + NxS_e4 <= 0
  -105 S_e_4 + NxS_e4 - N >= -105
  -N >= -105
  NxS_e6 - N <= 0
  -105 S_e_6 + NxS_e6 <= 0
  -105 S_e_6 + NxS_e6 - N >= -105
  -N >= -105
  NxS_e7 - N <= 0
  -105 S_e_7 + NxS_e7 <= 0
  -105 S_e_7 + NxS_e7 - N >= -105
  -14 S_e_7 - N >= -105
  NxS_e8 - N <= 0
  -105 S_e_8 + NxS_e8 <= 0
  -105 S_e_8 + NxS_e8 - N >= -105
  -91 S_e_8 - N >= -105
  NxS_e9 - N <= 0
  -105 S_e_9 + NxS_e9 <= 0
  -105 S_e_9 + NxS_e9 - N >= -105
  -91 S_e_9 - N >= -105
  NxS_e10 - N <= 0
  -105 S_e_10 + NxS_e10 <= 0
  -105 S_e_10 + NxS_e10 - N >= -105
  -104 S_e_10 - N >= -105
  S_e_7 + S_e_9 = 1
Bounds
  0 <= NxS_e0 <= 1
  0 <= NxS_e1 <= 14
  0 <= NxS_e2 <= 1
  0 <= NxS_e3 <= 14
  0 <= NxS_e4 <= 105
  0 <= NxS_e6 <= 105
  0 <= NxS_e7 <= 91
  0 <= NxS_e8 <= 14
  0 <= NxS_e9 <= 14
  0 <= NxS_e10 <= 1
  0 <= N <= 105
General
  N
Binary
  S_BB_1 S_BB_2 S_BB_3 S_BB_4 S_BB_5 S_BB_6 S_BB_7 S_BB_8 S_e_0 S_e_1 S_e_2 S_e_3 S_e_4 S_e_6 S_e_7 S_e_8 S_e_9 S_e_10
End
